************************************************************************
file with basedata            : mm11_.bas
initial value random generator: 2114911361
************************************************************************
projects                      :  1
jobs (incl. supersource/sink ):  12
horizon                       :  72
RESOURCES
  - renewable                 :  2   R
  - nonrenewable              :  2   N
  - doubly constrained        :  0   D
************************************************************************
PROJECT INFORMATION:
pronr.  #jobs rel.date duedate tardcost  MPM-Time
    1     10      0       16        3       16
************************************************************************
PRECEDENCE RELATIONS:
jobnr.    #modes  #successors   successors
   0        1          3           1   2   3
   1        3          1           8
   2        3          2           6   7
   3        3          2           4  10
   4        3          1           5
   5        3          2           6   8
   6        3          1           9
   7        3          3           8   9  10
   8        3          1          11
   9        3          1          11
  10        3          1          11
  11        1          0        
************************************************************************
REQUESTS/DURATIONS:
jobnr. mode duration  R 1  R 2  R 3  R 4  E(W 1)
------------------------------------------------------------------------
  0      1     0       0    0    0    0     0
  1      1     2       5    0    9    0    28
  2      1     1       0    7    0    7    14
  3      1     4      10    0    0    6    64
  4      1     5       4    0    0    7    55
  5      1     1       5    0    2    0     7
  6      1     5       0    7    0    3    50
  7      1     1       0    8    0    8    16
  8      1     4       0    2    9    0    44
  9      1     1       0    4    5    0     9
 10      1     3       0    6    0    7    39
 11      1     0       0    0    0    0     0
************************************************************************
RESOURCEAVAILABILITIES:
  R 1
   101
************************************************************************
RESOURCE LIMITS:
jobnr.  l(R 1)  u(R 1)
------------------------------------------------------------------------
  0        0       0
  1        8      14
  2        8      14
  3        8      16
  4        6      11
  5        4       7
  6        6      10
  7        8      16
  8        6      11
  9        5       9
 10        7      13
 11        0       0
************************************************************************
SCENARIOS:
------------------------------------------------------------------------
RESOURCE k = 1
s = 1: (0, 26, 17, 67, 64, 5, 68, 15, 34, 11, 36, 0)
s = 2: (0, 25, 13, 66, 65, 8, 64, 12, 31, 8, 45, 0)
s = 3: (0, 28, 17, 110, 69, 6, 32, 15, 79, 12, 37, 0)
s = 4: (0, 16, 16, 49, 74, 5, 48, 23, 30, 7, 31, 0)
s = 5: (0, 34, 16, 72, 39, 6, 33, 17, 53, 9, 41, 0)
s = 6: (0, 35, 13, 36, 54, 9, 33, 28, 41, 11, 41, 0)
s = 7: (0, 24, 12, 62, 50, 9, 41, 11, 53, 9, 34, 0)
s = 8: (0, 24, 16, 93, 68, 8, 43, 16, 24, 11, 29, 0)
s = 9: (0, 24, 17, 34, 59, 7, 46, 17, 58, 7, 54, 0)
s = 10: (0, 35, 19, 57, 64, 10, 61, 12, 28, 9, 53, 0)
s = 11: (0, 20, 22, 63, 46, 5, 78, 15, 40, 9, 40, 0)
s = 12: (0, 24, 16, 102, 35, 8, 48, 21, 46, 8, 29, 0)
s = 13: (0, 22, 13, 77, 41, 5, 41, 15, 48, 9, 34, 0)
s = 14: (0, 23, 15, 75, 47, 10, 42, 15, 66, 7, 31, 0)
s = 15: (0, 37, 8, 54, 44, 8, 55, 15, 40, 8, 30, 0)
s = 16: (0, 18, 12, 68, 39, 6, 35, 16, 45, 10, 34, 0)
s = 17: (0, 34, 20, 61, 55, 7, 53, 18, 31, 8, 60, 0)
s = 18: (0, 21, 16, 41, 96, 9, 58, 11, 39, 5, 34, 0)
s = 19: (0, 28, 11, 87, 34, 9, 46, 12, 29, 10, 46, 0)
s = 20: (0, 20, 12, 58, 54, 8, 32, 13, 35, 13, 65, 0)
s = 21: (0, 29, 14, 70, 39, 6, 40, 11, 71, 7, 52, 0)
s = 22: (0, 16, 15, 48, 48, 6, 41, 18, 49, 7, 29, 0)
s = 23: (0, 43, 18, 47, 45, 10, 28, 19, 43, 10, 48, 0)
s = 24: (0, 24, 14, 36, 46, 6, 39, 17, 28, 8, 44, 0)
s = 25: (0, 28, 14, 101, 41, 7, 38, 20, 64, 9, 23, 0)
s = 26: (0, 20, 21, 38, 56, 11, 52, 15, 66, 6, 31, 0)
s = 27: (0, 16, 10, 48, 46, 8, 56, 18, 44, 9, 30, 0)
s = 28: (0, 20, 17, 40, 64, 5, 71, 11, 56, 9, 61, 0)
s = 29: (0, 19, 13, 54, 58, 6, 29, 12, 64, 12, 35, 0)
s = 30: (0, 44, 18, 37, 40, 9, 35, 14, 48, 5, 43, 0)
s = 31: (0, 19, 9, 57, 36, 7, 64, 16, 45, 10, 68, 0)
s = 32: (0, 21, 24, 71, 60, 7, 39, 16, 39, 14, 38, 0)
s = 33: (0, 38, 23, 68, 40, 5, 44, 15, 62, 7, 39, 0)
s = 34: (0, 23, 14, 64, 84, 8, 47, 18, 50, 12, 32, 0)
s = 35: (0, 39, 13, 59, 39, 8, 44, 13, 38, 7, 30, 0)
s = 36: (0, 28, 14, 68, 66, 6, 36, 21, 32, 9, 28, 0)
s = 37: (0, 18, 16, 71, 69, 6, 31, 18, 25, 8, 44, 0)
s = 38: (0, 44, 21, 67, 70, 7, 32, 16, 53, 7, 30, 0)
s = 39: (0, 32, 14, 46, 62, 9, 82, 27, 49, 8, 44, 0)
s = 40: (0, 31, 12, 44, 60, 7, 46, 22, 40, 13, 60, 0)
s = 41: (0, 27, 14, 55, 48, 6, 32, 16, 37, 8, 40, 0)
s = 42: (0, 32, 24, 99, 85, 6, 46, 12, 36, 11, 32, 0)
s = 43: (0, 16, 17, 57, 68, 7, 45, 20, 66, 6, 36, 0)
s = 44: (0, 20, 9, 54, 60, 10, 45, 12, 46, 10, 44, 0)
s = 45: (0, 22, 25, 88, 40, 6, 32, 26, 55, 8, 26, 0)
s = 46: (0, 23, 10, 55, 52, 8, 73, 19, 40, 7, 22, 0)
s = 47: (0, 26, 11, 56, 35, 8, 47, 17, 34, 10, 67, 0)
s = 48: (0, 48, 24, 34, 61, 5, 60, 14, 41, 8, 47, 0)
s = 49: (0, 17, 14, 74, 64, 7, 65, 13, 55, 9, 50, 0)
s = 50: (0, 39, 10, 71, 58, 7, 42, 20, 49, 11, 29, 0)
s = 51: (0, 24, 11, 107, 55, 8, 52, 18, 68, 7, 48, 0)
s = 52: (0, 30, 16, 45, 34, 7, 35, 14, 39, 11, 56, 0)
s = 53: (0, 29, 16, 67, 45, 6, 57, 10, 23, 6, 43, 0)
s = 54: (0, 35, 10, 66, 56, 9, 39, 14, 32, 6, 30, 0)
s = 55: (0, 21, 12, 46, 83, 10, 40, 23, 46, 13, 35, 0)
s = 56: (0, 35, 9, 50, 31, 6, 64, 26, 46, 6, 55, 0)
s = 57: (0, 25, 19, 37, 61, 11, 55, 21, 34, 13, 34, 0)
s = 58: (0, 20, 14, 87, 53, 11, 45, 16, 30, 13, 30, 0)
s = 59: (0, 21, 16, 42, 45, 8, 49, 13, 48, 9, 31, 0)
s = 60: (0, 34, 11, 81, 71, 6, 41, 25, 34, 15, 28, 0)
s = 61: (0, 39, 12, 42, 43, 6, 73, 13, 56, 11, 36, 0)
s = 62: (0, 24, 9, 102, 52, 8, 39, 18, 35, 8, 34, 0)
s = 63: (0, 17, 18, 88, 41, 13, 65, 10, 54, 8, 22, 0)
s = 64: (0, 28, 15, 51, 55, 10, 27, 9, 27, 12, 26, 0)
s = 65: (0, 38, 18, 82, 31, 10, 47, 12, 32, 6, 38, 0)
s = 66: (0, 20, 23, 49, 44, 7, 30, 17, 66, 7, 42, 0)
s = 67: (0, 28, 15, 56, 57, 6, 41, 12, 47, 12, 49, 0)
s = 68: (0, 27, 12, 38, 48, 11, 44, 12, 49, 18, 61, 0)
s = 69: (0, 34, 15, 62, 37, 10, 70, 16, 57, 11, 47, 0)
s = 70: (0, 46, 10, 76, 34, 7, 37, 15, 33, 10, 28, 0)
s = 71: (0, 18, 12, 103, 90, 7, 68, 13, 30, 9, 28, 0)
s = 72: (0, 34, 20, 54, 75, 9, 83, 12, 64, 12, 36, 0)
s = 73: (0, 41, 20, 49, 38, 5, 38, 15, 41, 8, 48, 0)
s = 74: (0, 33, 18, 56, 34, 6, 76, 18, 54, 5, 27, 0)
s = 75: (0, 30, 12, 53, 54, 7, 65, 10, 71, 10, 45, 0)
s = 76: (0, 20, 9, 45, 87, 9, 38, 10, 48, 7, 29, 0)
s = 77: (0, 20, 16, 46, 56, 10, 33, 12, 27, 12, 28, 0)
s = 78: (0, 22, 18, 85, 45, 5, 56, 25, 30, 9, 52, 0)
s = 79: (0, 43, 11, 75, 53, 7, 47, 14, 50, 11, 33, 0)
s = 80: (0, 30, 21, 64, 65, 8, 36, 18, 52, 6, 25, 0)
s = 81: (0, 22, 20, 67, 50, 6, 49, 13, 56, 8, 34, 0)
s = 82: (0, 25, 17, 57, 44, 9, 40, 17, 45, 9, 26, 0)
s = 83: (0, 35, 23, 52, 85, 7, 89, 12, 29, 7, 36, 0)
s = 84: (0, 20, 12, 63, 52, 8, 37, 11, 50, 12, 46, 0)
s = 85: (0, 40, 13, 44, 37, 5, 44, 19, 60, 8, 24, 0)
s = 86: (0, 32, 13, 62, 84, 7, 47, 16, 30, 14, 27, 0)
s = 87: (0, 30, 11, 52, 78, 6, 34, 9, 38, 10, 41, 0)
s = 88: (0, 20, 12, 72, 79, 5, 72, 11, 32, 10, 40, 0)
s = 89: (0, 24, 9, 86, 72, 9, 45, 12, 46, 7, 33, 0)
s = 90: (0, 27, 10, 84, 69, 9, 32, 17, 55, 9, 27, 0)
s = 91: (0, 24, 13, 72, 63, 9, 50, 15, 29, 14, 53, 0)
s = 92: (0, 28, 21, 70, 94, 10, 36, 15, 30, 10, 31, 0)
s = 93: (0, 22, 24, 58, 65, 6, 73, 20, 70, 8, 42, 0)
s = 94: (0, 27, 14, 64, 84, 6, 71, 17, 82, 11, 24, 0)
s = 95: (0, 32, 12, 57, 61, 6, 31, 10, 43, 8, 53, 0)
s = 96: (0, 33, 21, 71, 54, 10, 69, 17, 38, 9, 55, 0)
s = 97: (0, 34, 18, 58, 33, 7, 82, 16, 35, 9, 52, 0)
s = 98: (0, 38, 10, 77, 56, 10, 31, 12, 31, 9, 22, 0)
s = 99: (0, 30, 16, 93, 36, 5, 37, 20, 36, 11, 63, 0)
s = 100: (0, 36, 15, 56, 42, 8, 42, 21, 36, 6, 57, 0)
s = 101: (0, 27, 14, 71, 49, 7, 59, 27, 69, 6, 53, 0)
s = 102: (0, 23, 8, 38, 39, 7, 28, 15, 52, 10, 25, 0)
s = 103: (0, 28, 16, 60, 49, 6, 39, 14, 47, 5, 29, 0)
s = 104: (0, 40, 16, 49, 34, 10, 49, 10, 61, 8, 32, 0)
s = 105: (0, 22, 9, 52, 42, 13, 56, 20, 32, 12, 26, 0)
s = 106: (0, 33, 14, 79, 63, 8, 58, 29, 25, 11, 27, 0)
s = 107: (0, 27, 14, 49, 55, 6, 43, 13, 28, 8, 45, 0)
s = 108: (0, 41, 14, 55, 47, 6, 54, 21, 45, 13, 37, 0)
s = 109: (0, 21, 11, 65, 45, 12, 50, 10, 41, 8, 37, 0)
s = 110: (0, 37, 22, 65, 40, 6, 60, 16, 50, 5, 46, 0)
s = 111: (0, 27, 15, 45, 47, 7, 44, 21, 42, 11, 37, 0)
s = 112: (0, 16, 8, 57, 65, 10, 52, 18, 37, 8, 59, 0)
s = 113: (0, 29, 16, 115, 32, 4, 49, 28, 32, 10, 26, 0)
s = 114: (0, 33, 17, 79, 48, 5, 68, 17, 68, 10, 39, 0)
s = 115: (0, 43, 10, 89, 46, 9, 34, 9, 56, 14, 28, 0)
s = 116: (0, 24, 15, 55, 76, 6, 41, 22, 30, 10, 31, 0)
s = 117: (0, 26, 12, 46, 55, 10, 50, 17, 50, 9, 50, 0)
s = 118: (0, 43, 16, 57, 53, 8, 70, 15, 50, 11, 41, 0)
s = 119: (0, 44, 26, 85, 71, 5, 53, 11, 40, 6, 31, 0)
s = 120: (0, 24, 12, 62, 54, 7, 44, 13, 30, 7, 46, 0)
s = 121: (0, 27, 21, 71, 61, 6, 74, 12, 29, 13, 38, 0)
s = 122: (0, 25, 10, 46, 40, 6, 46, 29, 42, 13, 29, 0)
s = 123: (0, 24, 20, 40, 50, 7, 59, 16, 38, 10, 41, 0)
s = 124: (0, 21, 15, 68, 41, 5, 53, 10, 63, 12, 33, 0)
s = 125: (0, 19, 10, 46, 83, 6, 68, 23, 58, 14, 33, 0)
s = 126: (0, 35, 20, 57, 65, 10, 30, 18, 63, 14, 44, 0)
s = 127: (0, 34, 10, 117, 70, 9, 33, 10, 55, 8, 34, 0)
s = 128: (0, 18, 20, 67, 69, 8, 33, 13, 65, 9, 22, 0)
s = 129: (0, 35, 22, 48, 45, 7, 35, 23, 33, 10, 44, 0)
s = 130: (0, 26, 16, 46, 70, 7, 71, 13, 45, 8, 45, 0)
s = 131: (0, 33, 16, 35, 60, 7, 40, 14, 30, 10, 38, 0)
s = 132: (0, 30, 20, 55, 51, 10, 78, 23, 41, 12, 25, 0)
s = 133: (0, 23, 16, 52, 62, 6, 63, 16, 33, 6, 31, 0)
s = 134: (0, 36, 11, 47, 61, 10, 58, 10, 43, 6, 50, 0)
s = 135: (0, 53, 12, 72, 58, 4, 39, 18, 37, 10, 36, 0)
s = 136: (0, 23, 8, 36, 66, 7, 37, 18, 59, 10, 63, 0)
s = 137: (0, 29, 16, 72, 73, 10, 42, 14, 46, 10, 26, 0)
s = 138: (0, 19, 21, 124, 67, 6, 62, 17, 61, 6, 27, 0)
s = 139: (0, 18, 13, 46, 77, 6, 43, 17, 30, 7, 49, 0)
s = 140: (0, 32, 11, 48, 59, 9, 79, 16, 40, 10, 43, 0)
s = 141: (0, 34, 21, 83, 66, 9, 33, 17, 31, 8, 44, 0)
s = 142: (0, 19, 11, 57, 69, 11, 49, 9, 51, 13, 33, 0)
s = 143: (0, 28, 14, 71, 51, 9, 58, 14, 44, 6, 29, 0)
s = 144: (0, 22, 13, 70, 58, 10, 29, 14, 81, 8, 47, 0)
s = 145: (0, 29, 18, 42, 42, 8, 40, 15, 46, 9, 45, 0)
s = 146: (0, 30, 10, 81, 39, 6, 84, 11, 64, 13, 54, 0)
s = 147: (0, 40, 10, 56, 67, 7, 35, 13, 54, 16, 33, 0)
s = 148: (0, 30, 11, 36, 81, 7, 49, 25, 34, 11, 44, 0)
s = 149: (0, 33, 20, 76, 65, 5, 52, 14, 33, 7, 26, 0)
s = 150: (0, 20, 12, 43, 85, 11, 51, 12, 45, 6, 47, 0)
s = 151: (0, 33, 9, 50, 54, 7, 33, 21, 54, 8, 44, 0)
s = 152: (0, 45, 11, 58, 58, 6, 38, 16, 34, 9, 27, 0)
s = 153: (0, 34, 15, 89, 68, 10, 51, 16, 35, 9, 45, 0)
s = 154: (0, 18, 10, 58, 42, 6, 27, 12, 41, 7, 49, 0)
s = 155: (0, 20, 12, 74, 49, 7, 48, 18, 27, 11, 41, 0)
s = 156: (0, 15, 9, 49, 41, 6, 43, 15, 45, 8, 62, 0)
s = 157: (0, 20, 12, 46, 68, 5, 37, 17, 45, 9, 46, 0)
s = 158: (0, 33, 14, 47, 87, 5, 58, 18, 73, 11, 43, 0)
s = 159: (0, 33, 14, 79, 65, 6, 29, 18, 64, 11, 31, 0)
s = 160: (0, 26, 18, 82, 67, 4, 73, 13, 32, 8, 42, 0)
s = 161: (0, 25, 11, 74, 78, 6, 58, 27, 52, 5, 54, 0)
s = 162: (0, 27, 12, 42, 77, 5, 62, 12, 52, 14, 39, 0)
s = 163: (0, 41, 15, 41, 33, 11, 34, 9, 52, 9, 30, 0)
s = 164: (0, 20, 16, 71, 74, 9, 40, 16, 35, 7, 60, 0)
s = 165: (0, 23, 22, 74, 43, 4, 46, 21, 32, 13, 50, 0)
s = 166: (0, 38, 12, 65, 53, 8, 36, 13, 64, 6, 30, 0)
s = 167: (0, 26, 13, 98, 52, 6, 68, 15, 26, 6, 42, 0)
s = 168: (0, 29, 23, 92, 57, 10, 65, 13, 36, 17, 37, 0)
s = 169: (0, 20, 13, 70, 48, 10, 51, 10, 37, 16, 29, 0)
s = 170: (0, 28, 15, 65, 84, 5, 65, 20, 59, 10, 53, 0)
s = 171: (0, 24, 16, 47, 63, 7, 52, 21, 43, 11, 43, 0)
s = 172: (0, 25, 14, 72, 80, 13, 44, 18, 36, 6, 36, 0)
s = 173: (0, 27, 12, 68, 49, 7, 35, 19, 39, 7, 39, 0)
s = 174: (0, 34, 12, 50, 88, 5, 69, 17, 36, 9, 46, 0)
s = 175: (0, 26, 14, 74, 49, 6, 47, 17, 48, 14, 35, 0)
s = 176: (0, 26, 17, 61, 64, 6, 35, 17, 40, 9, 28, 0)
s = 177: (0, 23, 11, 51, 76, 6, 54, 19, 53, 11, 55, 0)
s = 178: (0, 15, 10, 58, 41, 6, 70, 14, 45, 7, 27, 0)
s = 179: (0, 21, 10, 57, 63, 6, 48, 9, 51, 11, 45, 0)
s = 180: (0, 30, 14, 38, 96, 5, 43, 18, 29, 7, 49, 0)
s = 181: (0, 21, 13, 79, 73, 9, 43, 17, 55, 6, 26, 0)
s = 182: (0, 23, 14, 41, 49, 6, 50, 18, 69, 5, 23, 0)
s = 183: (0, 25, 24, 108, 48, 10, 44, 15, 73, 9, 33, 0)
s = 184: (0, 23, 17, 63, 64, 7, 53, 10, 50, 12, 55, 0)
s = 185: (0, 31, 13, 76, 42, 8, 33, 12, 73, 6, 41, 0)
s = 186: (0, 27, 23, 55, 69, 9, 29, 14, 46, 16, 40, 0)
s = 187: (0, 23, 13, 78, 35, 6, 59, 15, 47, 10, 47, 0)
s = 188: (0, 30, 12, 57, 42, 9, 71, 13, 44, 14, 23, 0)
s = 189: (0, 26, 9, 60, 62, 10, 30, 12, 35, 6, 29, 0)
s = 190: (0, 41, 20, 70, 66, 6, 62, 20, 46, 7, 49, 0)
s = 191: (0, 33, 15, 73, 41, 8, 31, 15, 44, 12, 38, 0)
s = 192: (0, 23, 16, 53, 58, 10, 37, 14, 34, 11, 52, 0)
s = 193: (0, 32, 12, 64, 60, 9, 56, 15, 36, 7, 37, 0)
s = 194: (0, 22, 12, 44, 59, 9, 45, 18, 32, 8, 40, 0)
s = 195: (0, 17, 17, 50, 77, 7, 31, 15, 40, 9, 23, 0)
s = 196: (0, 34, 18, 105, 88, 7, 38, 14, 46, 9, 44, 0)
s = 197: (0, 21, 12, 77, 56, 6, 43, 13, 32, 12, 56, 0)
s = 198: (0, 26, 15, 53, 51, 7, 54, 19, 54, 7, 30, 0)
s = 199: (0, 23, 15, 56, 73, 9, 67, 22, 29, 9, 32, 0)
s = 200: (0, 29, 12, 82, 36, 8, 35, 17, 31, 12, 25, 0)
************************************************************************
ES/LS-VALUES:
jobnr.   ES(i)    LS(i)
------------------------------------------------------------------------
  0        0        0
  1        0       60
  2        0       59
  3        0       42
  4        7       50
  5       15       59
  6       16       61
  7        1       62
  8       16       64
  9       24       70
 10        7       66
 11       26       72
************************************************************************
BIG-M-VALUES:
M1 = 16, M2 = 124
************************************************************************
